     Program PWSCF v.7.2 starts on  6Jul2023 at 12:49:50

     Reading input from espresso.pwi
Warning: card &CELL ignored
Warning: card / ignored

     Current dimensions of program PWSCF are:
     Max number of different atomic species (ntypx) = 10
     Max number of k-points (npk) =  40000
     Max angular momentum in pseudopotentials (lmaxx) =  4
     file O.pbe-n-kjpaw_psl.0.1.UPF: wavefunction(s)  2P renormalized
     signal trapping enabled: kill the code with -SIGUSR1 to stop cleanly the simulation
     Found identity + (  0.0000 -0.5000  0.0000) symmetry
     This is a supercell, fractional translations are disabled
     Message from routine setup:
     using ibrav=0 with symmetry is DISCOURAGED, use correct ibrav instead

     K-points division:     npool     =       2
     R & G space division:  proc/nbgrp/npool/nimage =      48
     Subspace diagonalization in iterative solution of the eigenvalue problem:
     one sub-group per band group will be used

     Using Slab Decomposition

     bravais-lattice index     =            0
     lattice parameter (alat)  =      14.7879  a.u.
     unit-cell volume          =    8983.2043 (a.u.)^3
     number of atoms/cell      =           68
     number of atomic types    =            3
     number of electrons       =       544.00
     number of Kohn-Sham states=          326
     kinetic-energy cutoff     =      50.0000  Ry
     charge density cutoff     =     400.0000  Ry
     scf convergence threshold =      1.0E-06
     mixing beta               =       0.1500
     number of iterations used =            8  plain     mixing
     Exchange-correlation= SLA  PW   PBX  PBC
                           (   1   4   3   4   0   0   0)

     celldm(1)=  14.787863  celldm(2)=   0.000000  celldm(3)=   0.000000
     celldm(4)=   0.000000  celldm(5)=   0.000000  celldm(6)=   0.000000

     crystal axes: (cart. coord. in units of alat)
               a(1) = (   1.000000   0.000000   0.000000 )
               a(2) = (   0.000000   1.000000   0.000000 )
               a(3) = (   0.000000   0.000000   2.777890 )

     reciprocal axes: (cart. coord. in units 2 pi/alat)
               b(1) = (  1.000000  0.000000  0.000000 )
               b(2) = (  0.000000  1.000000  0.000000 )
               b(3) = (  0.000000  0.000000  0.359985 )

     PseudoPot. # 1 for Sr read from file:
     /bsuhome/zayahcortright/q-e/pseudo/Sr_pbe_v1.uspp.F.UPF
     MD5 check sum: 6b418c05fbe9db5448babca5e47b7a5b
     Pseudo is Ultrasoft + core correction, Zval = 10.0
     Generated by new atomic code, or converted to UPF format
     Using radial grid of  883 points,  6 beta functions with:
                l(1) =   0
                l(2) =   0
                l(3) =   1
                l(4) =   1
                l(5) =   2
                l(6) =   2
     Q(r) pseudized with  6 coefficients,  rinner =    1.400   1.400   1.400
                                                       1.400   1.400

     PseudoPot. # 2 for Ti read from file:
     /bsuhome/zayahcortright/q-e/pseudo/ti_pbe_v1.4.uspp.F.UPF
     MD5 check sum: 88a00a6731bd790ddea75d31a80cb452
     Pseudo is Ultrasoft + core correction, Zval = 12.0
     Generated by new atomic code, or converted to UPF format
     Using radial grid of  851 points,  6 beta functions with:
                l(1) =   0
                l(2) =   0
                l(3) =   1
                l(4) =   1
                l(5) =   2
                l(6) =   2
     Q(r) pseudized with  6 coefficients,  rinner =    1.000   1.000   1.000
                                                       1.000   1.000

     PseudoPot. # 3 for O  read from file:
     /bsuhome/zayahcortright/q-e/pseudo/O.pbe-n-kjpaw_psl.0.1.UPF
     MD5 check sum: 0234752ac141de4415c5fc33072bef88
     Pseudo is Projector augmented-wave + core cor, Zval =  6.0
     Generated using "atomic" code by A. Dal Corso  v.5.0.99 svn rev. 10869
     Shape of augmentation charge: BESSEL
     Using radial grid of 1095 points,  4 beta functions with:
                l(1) =   0
                l(2) =   0
                l(3) =   1
                l(4) =   1
     Q(r) pseudized with 0 coefficients

     atomic species   valence    mass     pseudopotential
        Sr            10.00    87.62000     Sr( 1.00)
        Ti            12.00    47.86700     Ti( 1.00)
        O              6.00    15.99900     O ( 1.00)

      4 Sym. Ops. (no inversion) found

   Cartesian axes

     site n.     atom                  positions (alat units)
         1           Sr  tau(   1) = (   0.1250000   0.1250000   0.6389425  )
         2           Ti  tau(   2) = (   0.3750000   0.3750000   0.8889526  )
         3           O   tau(   3) = (   0.1250000   0.3750000   0.8889526  )
         4           O   tau(   4) = (   0.3750000   0.1250000   0.8889526  )
         5           O   tau(   5) = (   0.3750000   0.3750000   0.6389425  )
         6           Sr  tau(   6) = (   0.1250000   0.6250000   0.6389425  )
         7           Ti  tau(   7) = (   0.3750000   0.8750000   0.8889526  )
         8           O   tau(   8) = (   0.1250000   0.8750000   0.8889526  )
         9           O   tau(   9) = (   0.3750000   0.6250000   0.8889526  )
        10           O   tau(  10) = (   0.3750000   0.8750000   0.6389425  )
        11           Sr  tau(  11) = (   0.6250000   0.1250000   0.6389425  )
        12           Ti  tau(  12) = (   0.8750000   0.3750000   0.8889526  )
        13           O   tau(  13) = (   0.6250000   0.3750000   0.8889526  )
        14           O   tau(  14) = (   0.8750000   0.1250000   0.8889526  )
        15           O   tau(  15) = (   0.8750000   0.3750000   0.6389425  )
        16           Sr  tau(  16) = (   0.6250000   0.6250000   0.6389425  )
        17           Ti  tau(  17) = (   0.8750000   0.8750000   0.8889526  )
        18           O   tau(  18) = (   0.6250000   0.8750000   0.8889526  )
        19           O   tau(  19) = (   0.8750000   0.6250000   0.8889526  )
        20           O   tau(  20) = (   0.8750000   0.8750000   0.6389425  )
        21           Sr  tau(  21) = (   0.1250000   0.1250000   1.1389349  )
        22           Ti  tau(  22) = (   0.3750000   0.3750000   1.3889450  )
        23           O   tau(  23) = (   0.1250000   0.3750000   1.3889450  )
        24           O   tau(  24) = (   0.3750000   0.1250000   1.3889450  )
        25           O   tau(  25) = (   0.3750000   0.3750000   1.1389349  )
        26           Sr  tau(  26) = (   0.1250000   0.6250000   1.1389349  )
        27           Ti  tau(  27) = (   0.3750000   0.8750000   1.3889450  )
        28           O   tau(  28) = (   0.1250000   0.8750000   1.3889450  )
        29           O   tau(  29) = (   0.3750000   0.6250000   1.3889450  )
        30           O   tau(  30) = (   0.3750000   0.8750000   1.1389349  )
        31           Sr  tau(  31) = (   0.6250000   0.1250000   1.1389349  )
        32           Ti  tau(  32) = (   0.8750000   0.3750000   1.3889450  )
        33           O   tau(  33) = (   0.6250000   0.3750000   1.3889450  )
        34           O   tau(  34) = (   0.8750000   0.1250000   1.3889450  )
        35           O   tau(  35) = (   0.8750000   0.3750000   1.1389349  )
        36           Sr  tau(  36) = (   0.6250000   0.6250000   1.1389349  )
        37           Ti  tau(  37) = (   0.8750000   0.8750000   1.3889450  )
        38           O   tau(  38) = (   0.6250000   0.8750000   1.3889450  )
        39           O   tau(  39) = (   0.8750000   0.6250000   1.3889450  )
        40           O   tau(  40) = (   0.8750000   0.8750000   1.1389349  )
        41           Sr  tau(  41) = (   0.1250000   0.1250000   1.6389551  )
        42           Ti  tau(  42) = (   0.3750000   0.3750000   1.8889374  )
        43           O   tau(  43) = (   0.1250000   0.3750000   1.8889374  )
        44           O   tau(  44) = (   0.3750000   0.1250000   1.8889374  )
        45           O   tau(  45) = (   0.3750000   0.3750000   1.6389551  )
        46           Sr  tau(  46) = (   0.1250000   0.6250000   1.6389551  )
        47           Ti  tau(  47) = (   0.3750000   0.8750000   1.8889374  )
        48           O   tau(  48) = (   0.1250000   0.8750000   1.8889374  )
        49           O   tau(  49) = (   0.3750000   0.6250000   1.8889374  )
        50           O   tau(  50) = (   0.3750000   0.8750000   1.6389551  )
        51           Sr  tau(  51) = (   0.6250000   0.1250000   1.6389551  )
        52           Ti  tau(  52) = (   0.8750000   0.3750000   1.8889374  )
        53           O   tau(  53) = (   0.6250000   0.3750000   1.8889374  )
        54           O   tau(  54) = (   0.8750000   0.1250000   1.8889374  )
        55           O   tau(  55) = (   0.8750000   0.3750000   1.6389551  )
        56           Sr  tau(  56) = (   0.6250000   0.6250000   1.6389551  )
        57           Ti  tau(  57) = (   0.8750000   0.8750000   1.8889374  )
        58           O   tau(  58) = (   0.6250000   0.8750000   1.8889374  )
        59           O   tau(  59) = (   0.8750000   0.6250000   1.8889374  )
        60           O   tau(  60) = (   0.8750000   0.8750000   1.6389551  )
        61           Sr  tau(  61) = (   0.1250000   0.1250000   2.1389475  )
        62           O   tau(  62) = (   0.3750000   0.3750000   2.1389475  )
        63           Sr  tau(  63) = (   0.1250000   0.6250000   2.1389475  )
        64           O   tau(  64) = (   0.3750000   0.8750000   2.1389475  )
        65           Sr  tau(  65) = (   0.6250000   0.1250000   2.1389475  )
        66           O   tau(  66) = (   0.8750000   0.3750000   2.1389475  )
        67           Sr  tau(  67) = (   0.6250000   0.6250000   2.1389475  )
        68           O   tau(  68) = (   0.8750000   0.8750000   2.1389475  )

     number of k points=     7  Gaussian smearing, width (Ry)=  0.0200
                       cart. coord. in units 2pi/alat
        k(    1) = (   0.0000000   0.0000000   0.0000000), wk =   0.1250000
        k(    2) = (   0.0000000   0.2500000   0.0000000), wk =   0.5000000
        k(    3) = (   0.0000000  -0.5000000   0.0000000), wk =   0.2500000
        k(    4) = (   0.2500000   0.2500000   0.0000000), wk =   0.2500000
        k(    5) = (   0.2500000  -0.5000000   0.0000000), wk =   0.5000000
        k(    6) = (  -0.5000000  -0.5000000   0.0000000), wk =   0.1250000
        k(    7) = (   0.2500000  -0.2500000   0.0000000), wk =   0.2500000

     Check: negative core charge=   -0.000003

     Initial potential from superposition of free atoms

     starting charge     531.4610, renormalised to     544.0000

     negative rho (up, down):  1.050E+00 0.000E+00
     Starting wfcs are  488 randomized atomic wfcs
     Checking if some PAW data can be deallocated...

     Self-consistent Calculation

     iteration #  1     ecut=    50.00 Ry     beta= 0.15
     Davidson diagonalization with overlap
     ethr =  1.00E-02,  avg # of iterations =  2.0

     negative rho (up, down):  1.043E+00 0.000E+00

     total energy              =   -4203.55969250 Ry
     estimated scf accuracy    <     122.72429634 Ry

[...]

     total energy              =   -4229.34827477 Ry
     estimated scf accuracy    <       0.00000184 Ry

     iteration # 20     ecut=    50.00 Ry     beta= 0.15
     Davidson diagonalization with overlap
     ethr =  3.39E-10,  avg # of iterations =  4.0

     negative rho (up, down):  1.061E+00 0.000E+00

     End of self-consistent calculation

          k = 0.0000 0.0000 0.0000 ( 53641 PWs)   bands (ev):

   -51.0457 -51.0443 -51.0442 -51.0428 -51.0065 -51.0065 -51.0050 -51.0050
   -51.0050 -51.0050 -51.0035 -51.0035 -28.5891 -28.5891 -28.5717 -28.5717
   -28.5717 -28.5717 -28.5536 -28.5536 -27.4663 -27.4663 -27.4588 -27.4138
   -27.4137 -27.4134 -27.3735 -27.3735 -27.3616 -27.3616 -27.3548 -27.3548
   -27.3547 -27.3547 -27.3519 -27.3436 -27.3435 -27.3430 -27.3402 -27.3063
   -27.3063 -27.3035 -27.3035 -27.3023 -27.3023 -27.2864 -27.2864 -27.2864
   -27.2864 -27.2836 -27.2836 -27.2836 -27.2836 -27.2831 -27.2732 -27.2732
   -27.2658 -27.2658 -27.2626 -27.2577 -27.2577 -27.2547 -27.2446 -27.2423
   -12.3082 -12.2584 -12.1925 -12.1925 -12.0700 -12.0276 -12.0276 -11.7169
   -11.7169 -11.3258 -11.3258 -11.2878 -11.2878 -11.2801 -11.2801 -11.2434
   -11.2434 -11.2385 -11.2385 -11.2376 -11.1153 -11.1133 -11.0723 -11.0527
   -11.0527 -11.0221 -10.9522 -10.9522 -10.9425 -10.9425 -10.9370 -10.9370
   -10.9238 -10.9238 -10.9205 -10.9107 -10.7248 -10.7242 -10.4641 -10.4562
   -10.4349 -10.4349 -10.4349 -10.4349 -10.3939 -10.3939 -10.3939 -10.3939
   -10.3660 -10.3660 -10.3597 -10.3597 -10.3296 -10.3296 -10.3198 -10.3031
   -10.3017 -10.3017 -10.2980 -10.2938  -9.5612  -9.4478  -9.4478  -9.4469
    -9.4468  -9.4172  -9.4172  -9.3821  -9.3768  -9.3768  -9.3538  -9.3538
    -9.3283  -9.3283  -9.3006  -9.3006  -9.2395  -9.2395  -9.2094  -9.1068
    -9.1068  -9.0616  -9.0616  -8.9470  -8.9470  -8.9327  -8.8652  -8.8652
     0.8156   0.8194   0.8371   0.8762   0.9266   0.9266   0.9674   0.9674
     1.0014   1.0014   1.0565   1.0565   1.0713   1.1825   1.1833   1.2353
     1.4050   1.4050   1.4094   1.4688   1.4688   1.4707   1.5464   1.7382
     1.7382   1.9605   1.9605   2.1073   2.1885   2.1885   2.1893   2.1893
     2.3225   2.3225   2.4807   2.4807   2.4888   2.4888   2.5062   2.5500
     2.5500   2.5502   2.5502   2.5512   2.5512   2.5550   2.5550   2.6747
     2.6747   2.7732   2.8180   2.9181   2.9181   2.9547   2.9547   2.9740
     2.9740   2.9816   2.9816   3.0774   3.0774   3.0876   3.0876   3.2281
     3.2281   3.3536   3.3536   3.3834   3.4544   3.4544   3.4562   3.6622
     3.6645   3.6645   3.6770   3.6770   3.7845   3.8590   3.8590   3.8669
     3.8669   3.9729   3.9729   4.0189   4.0745   4.0793   4.1348   4.1348
     4.1500   4.1500   4.2509   4.2509   4.2801   4.2801   4.2838   4.2838
     4.3851   4.3851   4.5891   4.5891   4.6687   4.6687   4.6804   4.6804
     4.7425   4.7899   4.7899   4.8166   4.8166   4.8270   4.8270   4.9787
     4.9787   5.1830   5.1830   5.2035   5.2035   5.2111   5.2183   5.3403
     6.9808   7.2670   7.3165   7.3844   7.4612   7.6238   7.6238   7.7591
     7.7591   8.3381   8.3381   8.4295   8.4295   8.8201   8.8201   8.9338
     8.9338   8.9730   8.9730   8.9753   8.9753   9.1416   9.1416   9.1419
     9.1419   9.1620   9.1620   9.2315   9.2315   9.2461   9.2461   9.2661
     9.2669   9.2669   9.3378   9.3378   9.4363   9.4363   9.5455   9.5455
     9.5574   9.5574   9.6076   9.6531   9.6664   9.6664   9.6775   9.6886
     9.6990   9.7701   9.8808   9.9328  10.0965  10.0965

[...]

          k =-0.5000-0.5000 0.0000 ( 53592 PWs)   bands (ev):

[...]

          k = 0.2500-0.2500 0.0000 ( 53568 PWs)   bands (ev):

   -51.0453 -51.0443 -51.0442 -51.0432 -51.0060 -51.0060 -51.0050 -51.0050
   -51.0050 -51.0050 -51.0040 -51.0040 -28.5840 -28.5840 -28.5716 -28.5716
   -28.5716 -28.5716 -28.5589 -28.5589 -27.4496 -27.4496 -27.4449 -27.4217
   -27.4119 -27.4119 -27.4069 -27.3773 -27.3637 -27.3516 -27.3516 -27.3501
   -27.3448 -27.3447 -27.3438 -27.3438 -27.3416 -27.3162 -27.3157 -27.3157
   -27.3151 -27.3092 -27.3078 -27.3063 -27.3004 -27.3004 -27.2965 -27.2965
   -27.2965 -27.2964 -27.2899 -27.2896 -27.2896 -27.2852 -27.2852 -27.2767
   -27.2625 -27.2566 -27.2566 -27.2558 -27.2558 -27.2553 -27.2458 -27.2443
   -12.1727 -12.1462 -12.0782 -12.0782 -12.0044 -11.9500 -11.9500 -11.7133
   -11.7133 -11.6464 -11.5228 -11.3039 -11.2873 -11.2873 -11.2870 -11.2870
   -11.2585 -11.2202 -11.1412 -11.1367 -11.1367 -11.1318 -11.0979 -11.0451
   -11.0451 -11.0172 -11.0061 -10.9598 -10.9598 -10.9490 -10.9427 -10.9279
   -10.8980 -10.8980 -10.8905 -10.8905 -10.8322 -10.8139 -10.8129 -10.8054
   -10.5128 -10.5109 -10.4959 -10.4959 -10.4949 -10.4949 -10.4388 -10.4187
   -10.4186 -10.4184 -10.3692 -10.3274 -10.3265 -10.3265 -10.3173 -10.3173
    -9.9282  -9.9160  -9.9114  -9.9088  -9.5760  -9.5759  -9.5755  -9.5754
    -9.4194  -9.4186  -9.4017  -9.3725  -9.3667  -9.3667  -9.3418  -9.3102
    -9.3102  -9.2630  -9.2355  -9.2355  -9.2355  -9.2208  -9.1667  -9.1506
    -9.1029  -9.1029  -9.0669  -9.0289  -9.0289  -8.9865  -8.9533  -8.9533
     1.0200   1.0769   1.1169   1.1333   1.1333   1.1772   1.1772   1.2514
     1.2514   1.2644   1.2875   1.2875   1.3748   1.3818   1.4338   1.4347
     1.4895   1.5157   1.5157   1.5528   1.6457   1.6620   1.6640   1.6640
     1.8188   1.8812   1.9843   2.0430   2.0430   2.0673   2.1278   2.1803
     2.1803   2.2308   2.2333   2.2346   2.2823   2.2823   2.3263   2.3263
     2.3302   2.3759   2.3759   2.4104   2.4366   2.4669   2.4955   2.5364
     2.5364   2.5382   2.5382   2.6211   2.6225   2.6472   2.7505   2.7505
     2.7592   2.7592   2.9729   3.0206   3.1089   3.1089   3.1160   3.1160
     3.3868   3.4726   3.4771   3.4771   3.5845   3.5845   3.6019   3.6369
     3.6963   3.7876   3.7987   3.7987   3.8928   3.9234   3.9810   3.9816
     3.9816   4.0019   4.0724   4.0724   4.1134   4.1134   4.1261   4.1309
     4.1309   4.1958   4.2004   4.3058   4.3059   4.3067   4.3131   4.3475
     4.3475   4.3649   4.3812   4.4011   4.4011   4.4070   4.4701   4.5113
     4.6106   4.6434   4.6649   4.6649   4.7153   4.7953   4.8269   4.8269
     4.8616   4.9148   4.9313   4.9978   5.0855   5.0976   5.0976   5.1577
     7.2435   7.6204   7.8262   7.8635   7.8717   7.8996   7.9250   7.9590
     7.9590   8.2760   8.2761   8.3957   8.4252   8.5377   8.5377   8.5979
     8.5979   8.9346   8.9346   8.9526   8.9526   8.9531   8.9647   8.9647
     8.9707   8.9725   9.0012   9.0012   9.0372   9.0561   9.0561   9.0759
     9.0833   9.0833   9.2323   9.3204   9.3241   9.3752   9.3752   9.4212
     9.4274   9.5029   9.5159   9.5689   9.6881  10.0912  10.0912  10.2581
    10.2581  10.2844  10.3152  10.3981  10.4014  10.4333

     the Fermi energy is     6.1697 ev

!    total energy              =   -4229.34827759 Ry
     estimated scf accuracy    <       0.00000030 Ry
     smearing contrib. (-TS)   =      -0.00000024 Ry
     internal energy E=F+TS    =   -4229.34827735 Ry

     The total energy is F=E-TS. E is the sum of the following terms:
     one-electron contribution =  -18913.26189976 Ry
     hartree contribution      =    9670.52484326 Ry
     xc contribution           =    -809.03687995 Ry
     ewald contribution        =    6203.01850457 Ry
     one-center paw contrib.   =    -380.59284548 Ry

     convergence has been achieved in  20 iterations

     Writing all to output data dir ./pwscf.save/

     General routines

     Parallel routines

   This run was terminated on:  12:54:18   6Jul2023

   JOB DONE.